(set-logic QF_LRA)
(declare-fun T1 () Real )
(declare-fun T2 () Real )
(declare-fun T3 () Real )
(declare-fun T4 () Real )
(declare-fun T5 () Real )
(declare-fun T6 () Real )
(declare-fun Z () Real )
(declare-fun k () Real )
(assert (let
(( $goal (>= Z k) ))
(let
((
$phi ( and 
(or ( <= ( + T1 72 ) T2 ) ( <= ( + T2 33 ) T1 ) )
(or ( <= ( + T1 123 )  ( + T2 33 ) ) ( <= ( + T2 65 )( + T1 72 ) ) )
(or ( <= ( + T1 204 )  ( + T2 65 ) ) ( <= ( + T2 147 )( + T1 123 ) ) )
(or ( <= ( + T1 212 )  ( + T2 147 ) ) ( <= ( + T2 170 )( + T1 204 ) ) )
(or ( <= ( + T1 72 ) T3 ) ( <= ( + T3 24 ) T1 ) )
(or ( <= ( + T1 123 )  ( + T3 24 ) ) ( <= ( + T3 51 )( + T1 72 ) ) )
(or ( <= ( + T1 204 )  ( + T3 51 ) ) ( <= ( + T3 102 )( + T1 123 ) ) )
(or ( <= ( + T1 212 )  ( + T3 102 ) ) ( <= ( + T3 176 )( + T1 204 ) ) )
(or ( <= ( + T1 72 ) T4 ) ( <= ( + T4 7 ) T1 ) )
(or ( <= ( + T1 123 )  ( + T4 7 ) ) ( <= ( + T4 12 )( + T1 72 ) ) )
(or ( <= ( + T1 204 )  ( + T4 12 ) ) ( <= ( + T4 49 )( + T1 123 ) ) )
(or ( <= ( + T1 212 )  ( + T4 49 ) ) ( <= ( + T4 76 )( + T1 204 ) ) )
(or ( <= ( + T1 72 ) T5 ) ( <= ( + T5 47 ) T1 ) )
(or ( <= ( + T1 123 )  ( + T5 47 ) ) ( <= ( + T5 135 )( + T1 72 ) ) )
(or ( <= ( + T1 204 )  ( + T5 135 ) ) ( <= ( + T5 227 )( + T1 123 ) ) )
(or ( <= ( + T1 212 )  ( + T5 227 ) ) ( <= ( + T5 252 )( + T1 204 ) ) )
(or ( <= ( + T1 72 ) T6 ) ( <= ( + T6 1 ) T1 ) )
(or ( <= ( + T1 123 )  ( + T6 1 ) ) ( <= ( + T6 12 )( + T1 72 ) ) )
(or ( <= ( + T1 204 )  ( + T6 12 ) ) ( <= ( + T6 100 )( + T1 123 ) ) )
(or ( <= ( + T1 212 )  ( + T6 100 ) ) ( <= ( + T6 104 )( + T1 204 ) ) )
(or ( <= ( + T2 33 ) T3 ) ( <= ( + T3 24 ) T2 ) )
(or ( <= ( + T2 65 )  ( + T3 24 ) ) ( <= ( + T3 51 )( + T2 33 ) ) )
(or ( <= ( + T2 147 )  ( + T3 51 ) ) ( <= ( + T3 102 )( + T2 65 ) ) )
(or ( <= ( + T2 170 )  ( + T3 102 ) ) ( <= ( + T3 176 )( + T2 147 ) ) )
(or ( <= ( + T2 33 ) T4 ) ( <= ( + T4 7 ) T2 ) )
(or ( <= ( + T2 65 )  ( + T4 7 ) ) ( <= ( + T4 12 )( + T2 33 ) ) )
(or ( <= ( + T2 147 )  ( + T4 12 ) ) ( <= ( + T4 49 )( + T2 65 ) ) )
(or ( <= ( + T2 170 )  ( + T4 49 ) ) ( <= ( + T4 76 )( + T2 147 ) ) )
(or ( <= ( + T2 33 ) T5 ) ( <= ( + T5 47 ) T2 ) )
(or ( <= ( + T2 65 )  ( + T5 47 ) ) ( <= ( + T5 135 )( + T2 33 ) ) )
(or ( <= ( + T2 147 )  ( + T5 135 ) ) ( <= ( + T5 227 )( + T2 65 ) ) )
(or ( <= ( + T2 170 )  ( + T5 227 ) ) ( <= ( + T5 252 )( + T2 147 ) ) )
(or ( <= ( + T2 33 ) T6 ) ( <= ( + T6 1 ) T2 ) )
(or ( <= ( + T2 65 )  ( + T6 1 ) ) ( <= ( + T6 12 )( + T2 33 ) ) )
(or ( <= ( + T2 147 )  ( + T6 12 ) ) ( <= ( + T6 100 )( + T2 65 ) ) )
(or ( <= ( + T2 170 )  ( + T6 100 ) ) ( <= ( + T6 104 )( + T2 147 ) ) )
(or ( <= ( + T3 24 ) T4 ) ( <= ( + T4 7 ) T3 ) )
(or ( <= ( + T3 51 )  ( + T4 7 ) ) ( <= ( + T4 12 )( + T3 24 ) ) )
(or ( <= ( + T3 102 )  ( + T4 12 ) ) ( <= ( + T4 49 )( + T3 51 ) ) )
(or ( <= ( + T3 176 )  ( + T4 49 ) ) ( <= ( + T4 76 )( + T3 102 ) ) )
(or ( <= ( + T3 24 ) T5 ) ( <= ( + T5 47 ) T3 ) )
(or ( <= ( + T3 51 )  ( + T5 47 ) ) ( <= ( + T5 135 )( + T3 24 ) ) )
(or ( <= ( + T3 102 )  ( + T5 135 ) ) ( <= ( + T5 227 )( + T3 51 ) ) )
(or ( <= ( + T3 176 )  ( + T5 227 ) ) ( <= ( + T5 252 )( + T3 102 ) ) )
(or ( <= ( + T3 24 ) T6 ) ( <= ( + T6 1 ) T3 ) )
(or ( <= ( + T3 51 )  ( + T6 1 ) ) ( <= ( + T6 12 )( + T3 24 ) ) )
(or ( <= ( + T3 102 )  ( + T6 12 ) ) ( <= ( + T6 100 )( + T3 51 ) ) )
(or ( <= ( + T3 176 )  ( + T6 100 ) ) ( <= ( + T6 104 )( + T3 102 ) ) )
(or ( <= ( + T4 7 ) T5 ) ( <= ( + T5 47 ) T4 ) )
(or ( <= ( + T4 12 )  ( + T5 47 ) ) ( <= ( + T5 135 )( + T4 7 ) ) )
(or ( <= ( + T4 49 )  ( + T5 135 ) ) ( <= ( + T5 227 )( + T4 12 ) ) )
(or ( <= ( + T4 76 )  ( + T5 227 ) ) ( <= ( + T5 252 )( + T4 49 ) ) )
(or ( <= ( + T4 7 ) T6 ) ( <= ( + T6 1 ) T4 ) )
(or ( <= ( + T4 12 )  ( + T6 1 ) ) ( <= ( + T6 12 )( + T4 7 ) ) )
(or ( <= ( + T4 49 )  ( + T6 12 ) ) ( <= ( + T6 100 )( + T4 12 ) ) )
(or ( <= ( + T4 76 )  ( + T6 100 ) ) ( <= ( + T6 104 )( + T4 49 ) ) )
(or ( <= ( + T5 47 ) T6 ) ( <= ( + T6 1 ) T5 ) )
(or ( <= ( + T5 135 )  ( + T6 1 ) ) ( <= ( + T6 12 )( + T5 47 ) ) )
(or ( <= ( + T5 227 )  ( + T6 12 ) ) ( <= ( + T6 100 )( + T5 135 ) ) )
(or ( <= ( + T5 252 )  ( + T6 100 ) ) ( <= ( + T6 104 )( + T5 227 ) ) )
( <= ( + T1 212 ) Z)
( <= ( + T2 170 ) Z)
( <= ( + T3 176 ) Z)
( <= ( + T4 76 ) Z)
( <= ( + T5 252 ) Z)
( <= ( + T6 104 ) Z)
( >= T1 0 )
( >= T2 0 )
( >= T3 0 )
( >= T4 0 )
( >= T5 0 )
( >= T6 0 )
) )
)(=> $phi $goal))))